ABINIT generated POSCAR file. Title string - should be chemical formula... Si2
1.0
        3.8092000484         0.0000000000         0.0000000000
        1.9046000242         3.2988640101         0.0000000000
        1.9046000242         1.0996213367         3.1101988156
   Si
    2
Direct
     0.000000000         0.000000000         0.000000000
     0.250000008         0.249999990         0.249999994
