#Definition of the unit cell
acell 5.9667480187E+00 5.9667476359E+00 7.5563023787E+01 Bohr
rprim
1.0000000000E+00 -7.2975642494E-07 0.0000000000E+00
-5.0000066406E-01 8.6602502039E-01 0.0000000000E+00
0.0000000000E+00 0.0000000000E+00 1.0000000000E+00

#Definition of the atoms
ntypat 2
znucl 42 16
natom 6
typat 1 1 2 2 2 2
xred
3.3333333333E-01 6.6666666667E-01 7.3459225746E-02
6.6666666667E-01 3.3333333333E-01 2.2654077425E-01
3.3333333333E-01 6.6666666667E-01 1.8732652526E-01
6.6666666667E-01 3.3333333333E-01 1.1267347474E-01
6.6666666667E-01 3.3333333333E-01 3.4217093731E-02
3.3333333333E-01 6.6666666667E-01 2.6578290627E-01
