# H2O molecule in a big box

#Definition of the unit cell
acell 20 20 20    # Cell lattice vector scaling 
rprim  1 0 0      # Real space PRIMitive translations
       0 1 0
       0 0 1 

#Definition of the atom types
ntypat 2          # There is only one type of atom
znucl 8 1           # The keyword "znucl" refers to the atomic number of the 
                  # possible type(s) of atom. The pseudopotential(s) 
                  # mentioned in the "files" file must correspond
                  # to the type(s) of atom. 


#Definition of the atoms
natom 3           # There are three atoms
typat 1 2 2       # the first is of type 1, the second and the third are of type 2
xred                                                           
    0.4615520604483900  0.4999999999999999  0.5000000000000000
    0.5384479395516100  0.4035875172434799  0.5000000000000000
    0.5384479395516100  0.5964124827565200  0.5000000000000000

pseudos "o.psp8, h.psp8"

prtden    0
prtwf     0
prtposcar 1
ixc       11

#Definition of the planewave basis set
ecut 20.0         # Maximal kinetic energy cut-off, in Hartree
ecutsm 0.5        # Energy cutoff smearing

#Definition of the k-point grid
kptopt 0          # Enter the k points manually 
nkpt 1            # Only one k point is needed for isolated system,
                  # taken by default to be 0.0 0.0 0.0

#Definition of the SCF procedure
nstep 100         # Maximal number of SCF cycles
toldfe 1.0d-9     # Will stop when, twice in a row, the difference
                  # between two consecutive evaluations of total energy
                  # differ by less than toldfe (in Hartree)
                  # This value is way too large for most realistic studies of materials
diemac 2.0        # Although this is not mandatory, it is worth to
                  # precondition the SCF cycle. The model dielectric
                  # function used as the standard preconditioner
                  # is described in the "dielng" input variable section.
                  # Here, we follow the prescriptions for molecules
                  # in a big box

ndtset 2 jdtset 1 2

#DATASET 2: geometry optimization
#################################
dilatmx2  1.1
optcell2  0
ionmov2   2
ntime2    200
tolmxf2   1.0d-5

