natom 54
typat
 1 1 1 1 1 1 1 1 1 1 1 1 1 1 1 1 1 1 2 2 2 2 2 2 2 2 2 2 2 2 2 2 2 2 2 2 2 2 2 2 2 2 2 2 2 2 2 2 2 2 2 2 2 2
ntypat 2
znucl 42 16
acell 1 1 1
rprim
   9.0560300050499993 -15.6855040835344433   0.0000000000000000
   9.0560300050499993  15.6855040835344433   0.0000000000000000
   0.0000000000000000   0.0000000000000000  25.6852226329999986
xred
  0.2222222222233333  0.1111111111100000  0.2500000000000000
  0.5555555555566666  0.1111111111099999  0.2500000000000000
  0.8888888888900000  0.1111111111100000  0.2500000000000000
  0.2222222222233333  0.4444444444433333  0.2500000000000000
  0.5555555555566666  0.4444444444433333  0.2500000000000000
  0.8888888888900000  0.4444444444433333  0.2500000000000000
  0.2222222222233334  0.7777777777766666  0.2500000000000000
  0.5555555555566666  0.7777777777766667  0.2500000000000000
  0.8888888888900001  0.7777777777766667  0.2500000000000000
  0.1111111111100000  0.2222222222233333  0.7500000000000000
  0.4444444444433333  0.2222222222233333  0.7500000000000000
  0.7777777777766666  0.2222222222233334  0.7500000000000000
  0.1111111111099999  0.5555555555566666  0.7500000000000000
  0.4444444444433333  0.5555555555566666  0.7500000000000000
  0.7777777777766667  0.5555555555566666  0.7500000000000000
  0.1111111111100000  0.8888888888900000  0.7500000000000000
  0.4444444444433333  0.8888888888900000  0.7500000000000000
  0.7777777777766667  0.8888888888900001  0.7500000000000000
  0.2215858657630064  0.1111111111100000  0.6345949100396731
  0.5555555555566666  0.1111111111099999  0.6352312664999999
  0.8888888888900000  0.1111111111100000  0.6352312664999999
  0.2222222222233333  0.4444444444433333  0.6352312664999999
  0.5555555555566666  0.4444444444433333  0.6352312664999999
  0.8888888888900000  0.4444444444433333  0.6352312664999999
  0.2222222222233334  0.7777777777766666  0.6352312664999999
  0.5555555555566666  0.7777777777766667  0.6352312664999999
  0.8888888888900001  0.7777777777766667  0.6352312664999999
  0.1111111111100000  0.2222222222233333  0.3647687335000000
  0.4444444444433333  0.2222222222233333  0.3647687335000000
  0.7777777777766666  0.2222222222233334  0.3647687335000000
  0.1111111111099999  0.5555555555566666  0.3647687335000000
  0.4444444444433333  0.5555555555566666  0.3647687335000000
  0.7777777777766667  0.5555555555566666  0.3647687335000000
  0.1111111111100000  0.8888888888900000  0.3647687335000000
  0.4444444444433333  0.8888888888900000  0.3647687335000000
  0.7777777777766667  0.8888888888900001  0.3647687335000000
  0.2222222222233333  0.1111111111100000  0.8647687335000001
  0.5555555555566666  0.1111111111099999  0.8647687335000001
  0.8888888888900000  0.1111111111100000  0.8647687335000001
  0.2222222222233333  0.4444444444433333  0.8647687335000001
  0.5555555555566666  0.4444444444433333  0.8647687335000001
  0.8888888888900000  0.4444444444433333  0.8647687335000001
  0.2222222222233334  0.7777777777766666  0.8647687335000001
  0.5555555555566666  0.7777777777766667  0.8647687335000001
  0.8888888888900001  0.7777777777766667  0.8647687335000001
  0.1111111111100000  0.2222222222233333  0.1352312665000000
  0.4444444444433333  0.2222222222233333  0.1352312665000000
  0.7777777777766666  0.2222222222233334  0.1352312665000000
  0.1111111111099999  0.5555555555566666  0.1352312665000000
  0.4444444444433333  0.5555555555566666  0.1352312665000000
  0.7777777777766667  0.5555555555566666  0.1352312665000000
  0.1111111111100000  0.8888888888900000  0.1352312665000000
  0.4444444444433333  0.8888888888900000  0.1352312665000000
  0.7777777777766667  0.8888888888900001  0.1352312665000000
# common parameters

pseudos "mo.psp8, s.psp8"

chkprim   0
prtden    0
prtwf     0
prtposcar 1
ixc       11
tolsym    1e-8

#autoparal 1
#max_ncpus 128
paral_kgb 1

nband 280

np_spkpt 5
npfft 5
npband 5
bandpp 14

#Definition of the planewave basis set
ecut 20.0         # Maximal kinetic energy cut-off, in Hartree

#Definition of the k-point grid
kptopt 1           # Option for the automatic generation of k points, taking
                   # into account the symmetry
ngkpt 3 3 1      # This is an nxnx1 grid based on the primitive vectors
nshiftk 1
shiftk 0.0 0.0 0.0

#Definition of the SCF procedure
nstep 100         # Maximal number of SCF cycles
toldfe 1.0d-9     # Will stop when, twice in a row, the difference
                  # between two consecutive evaluations of total energy
                  # differ by less than toldfe (in Hartree)
                  # This value is way too large for most realistic studies of materials
diemac 12.0       # Although this is not mandatory, it is worth to
                  # precondition the SCF cycle. The model dielectric
                  # function used as the standard preconditioner
                  # is described in the "dielng" input variable section.
                  # Here, we follow the prescriptions for molecules
                  # in a big box

getden_filepath "../superc/superc_DEN"

