O  H 
 1.0000000000000000
    10.5835441718001189    0.0000000000000000    0.0000000000000000
     0.0000000000000000   10.5835441718001189    0.0000000000000000
     0.0000000000000000    0.0000000000000000   10.5835441718001189
 O   H  
   1   2
Direct
  0.4615520604483900  0.4999999999999999  0.5000000000000000
  0.5384479395516100  0.4035875172434799  0.5000000000000000
  0.5384479395516100  0.5964124827565200  0.5000000000000000
