ABINIT generated POSCAR file. Title string - should be chemical formula...  H2
   -0.14818470952904E+03
    0.52917720859000E+01    0.00000000000000E+00    0.00000000000000E+00
    0.00000000000000E+00    0.52917720859000E+01    0.00000000000000E+00
    0.00000000000000E+00    0.00000000000000E+00    0.52917720859000E+01
H
         2
Direct
   -0.70000000000000E-01     0.00000000000000E+00     0.00000000000000E+00
    0.70000000000000E-01     0.00000000000000E+00     0.00000000000000E+00
