natom 3
typat
 1 2 2
ntypat 2
znucl 8 1
acell 1 1 1
rprim
  15.0000000000000000   0.0000000000000000   0.0000000000000000
   0.0000000000000000  15.0000000000000000   0.0000000000000000
   0.0000000000000000   0.0000000000000000  15.0000000000000000
xred
  0.4976249512645200  0.5000000000000000  0.5000000000000000
  0.5754636394093220  0.4035875172434800  0.5009428090415821
  0.5745208303677400  0.5964124827565300  0.5000000000000000
# common parameters

pseudos "o.psp8, h.psp8"

prtden 0
prtwf 0
ixc    1

#Definition of the planewave basis set
ecut 10.0         # Maximal kinetic energy cut-off, in Hartree

#Definition of the k-point grid
kptopt 0          # Enter the k points manually 
nkpt 1            # Only one k point is needed for isolated system,
                  # taken by default to be 0.0 0.0 0.0

#Definition of the SCF procedure
nstep 100          # Maximal number of SCF cycles
toldfe 1.0d-5     # Will stop when, twice in a row, the difference
                  # between two consecutive evaluations of total energy
                  # differ by less than toldfe (in Hartree)
                  # This value is way too large for most realistic studies of materials
diemac 2.0        # Although this is not mandatory, it is worth to
                  # precondition the SCF cycle. The model dielectric
                  # function used as the standard preconditioner
                  # is described in the "dielng" input variable section.
                  # Here, we follow the prescriptions for molecules
                  # in a big box

