# File generated with Atomsk by elliot on 2025-10-17 12:16:14
1.000000
     21.72400000        0.00000000        0.00000000
      0.00000000       21.72400000        0.00000000
      0.00000000        0.00000000       21.72400000
 Si
   512
Cartesian
      0.00000000        0.00000000        0.00000000
      0.00000000        2.71550000        2.71550000
      2.71550000        0.00000000        2.71550000
      2.71550000        2.71550000        0.00000000
      1.35775000        1.35775000        1.35775000
      1.35775000        4.07325000        4.07325000
      4.07325000        1.35775000        4.07325000
      4.07325000        4.07325000        1.35775000
      5.43100000        0.00000000        0.00000000
      5.43100000        2.71550000        2.71550000
      8.14650000        0.00000000        2.71550000
      8.14650000        2.71550000        0.00000000
      6.78875000        1.35775000        1.35775000
      6.78875000        4.07325000        4.07325000
      9.50425000        1.35775000        4.07325000
      9.50425000        4.07325000        1.35775000
     10.86200000        0.00000000        0.00000000
     10.86200000        2.71550000        2.71550000
     13.57750000        0.00000000        2.71550000
     13.57750000        2.71550000        0.00000000
     12.21975000        1.35775000        1.35775000
     12.21975000        4.07325000        4.07325000
     14.93525000        1.35775000        4.07325000
     14.93525000        4.07325000        1.35775000
     16.29300000        0.00000000        0.00000000
     16.29300000        2.71550000        2.71550000
     19.00850000        0.00000000        2.71550000
     19.00850000        2.71550000        0.00000000
     17.65075000        1.35775000        1.35775000
     17.65075000        4.07325000        4.07325000
     20.36625000        1.35775000        4.07325000
     20.36625000        4.07325000        1.35775000
      0.00000000        5.43100000        0.00000000
      0.00000000        8.14650000        2.71550000
      2.71550000        5.43100000        2.71550000
      2.71550000        8.14650000        0.00000000
      1.35775000        6.78875000        1.35775000
      1.35775000        9.50425000        4.07325000
      4.07325000        6.78875000        4.07325000
      4.07325000        9.50425000        1.35775000
      5.43100000        5.43100000        0.00000000
      5.43100000        8.14650000        2.71550000
      8.14650000        5.43100000        2.71550000
      8.14650000        8.14650000        0.00000000
      6.78875000        6.78875000        1.35775000
      6.78875000        9.50425000        4.07325000
      9.50425000        6.78875000        4.07325000
      9.50425000        9.50425000        1.35775000
     10.86200000        5.43100000        0.00000000
     10.86200000        8.14650000        2.71550000
     13.57750000        5.43100000        2.71550000
     13.57750000        8.14650000        0.00000000
     12.21975000        6.78875000        1.35775000
     12.21975000        9.50425000        4.07325000
     14.93525000        6.78875000        4.07325000
     14.93525000        9.50425000        1.35775000
     16.29300000        5.43100000        0.00000000
     16.29300000        8.14650000        2.71550000
     19.00850000        5.43100000        2.71550000
     19.00850000        8.14650000        0.00000000
     17.65075000        6.78875000        1.35775000
     17.65075000        9.50425000        4.07325000
     20.36625000        6.78875000        4.07325000
     20.36625000        9.50425000        1.35775000
      0.00000000       10.86200000        0.00000000
      0.00000000       13.57750000        2.71550000
      2.71550000       10.86200000        2.71550000
      2.71550000       13.57750000        0.00000000
      1.35775000       12.21975000        1.35775000
      1.35775000       14.93525000        4.07325000
      4.07325000       12.21975000        4.07325000
      4.07325000       14.93525000        1.35775000
      5.43100000       10.86200000        0.00000000
      5.43100000       13.57750000        2.71550000
      8.14650000       10.86200000        2.71550000
      8.14650000       13.57750000        0.00000000
      6.78875000       12.21975000        1.35775000
      6.78875000       14.93525000        4.07325000
      9.50425000       12.21975000        4.07325000
      9.50425000       14.93525000        1.35775000
     10.86200000       10.86200000        0.00000000
     10.86200000       13.57750000        2.71550000
     13.57750000       10.86200000        2.71550000
     13.57750000       13.57750000        0.00000000
     12.21975000       12.21975000        1.35775000
     12.21975000       14.93525000        4.07325000
     14.93525000       12.21975000        4.07325000
     14.93525000       14.93525000        1.35775000
     16.29300000       10.86200000        0.00000000
     16.29300000       13.57750000        2.71550000
     19.00850000       10.86200000        2.71550000
     19.00850000       13.57750000        0.00000000
     17.65075000       12.21975000        1.35775000
     17.65075000       14.93525000        4.07325000
     20.36625000       12.21975000        4.07325000
     20.36625000       14.93525000        1.35775000
      0.00000000       16.29300000        0.00000000
      0.00000000       19.00850000        2.71550000
      2.71550000       16.29300000        2.71550000
      2.71550000       19.00850000        0.00000000
      1.35775000       17.65075000        1.35775000
      1.35775000       20.36625000        4.07325000
      4.07325000       17.65075000        4.07325000
      4.07325000       20.36625000        1.35775000
      5.43100000       16.29300000        0.00000000
      5.43100000       19.00850000        2.71550000
      8.14650000       16.29300000        2.71550000
      8.14650000       19.00850000        0.00000000
      6.78875000       17.65075000        1.35775000
      6.78875000       20.36625000        4.07325000
      9.50425000       17.65075000        4.07325000
      9.50425000       20.36625000        1.35775000
     10.86200000       16.29300000        0.00000000
     10.86200000       19.00850000        2.71550000
     13.57750000       16.29300000        2.71550000
     13.57750000       19.00850000        0.00000000
     12.21975000       17.65075000        1.35775000
     12.21975000       20.36625000        4.07325000
     14.93525000       17.65075000        4.07325000
     14.93525000       20.36625000        1.35775000
     16.29300000       16.29300000        0.00000000
     16.29300000       19.00850000        2.71550000
     19.00850000       16.29300000        2.71550000
     19.00850000       19.00850000        0.00000000
     17.65075000       17.65075000        1.35775000
     17.65075000       20.36625000        4.07325000
     20.36625000       17.65075000        4.07325000
     20.36625000       20.36625000        1.35775000
      0.00000000        0.00000000        5.43100000
      0.00000000        2.71550000        8.14650000
      2.71550000        0.00000000        8.14650000
      2.71550000        2.71550000        5.43100000
      1.35775000        1.35775000        6.78875000
      1.35775000        4.07325000        9.50425000
      4.07325000        1.35775000        9.50425000
      4.07325000        4.07325000        6.78875000
      5.43100000        0.00000000        5.43100000
      5.43100000        2.71550000        8.14650000
      8.14650000        0.00000000        8.14650000
      8.14650000        2.71550000        5.43100000
      6.78875000        1.35775000        6.78875000
      6.78875000        4.07325000        9.50425000
      9.50425000        1.35775000        9.50425000
      9.50425000        4.07325000        6.78875000
     10.86200000        0.00000000        5.43100000
     10.86200000        2.71550000        8.14650000
     13.57750000        0.00000000        8.14650000
     13.57750000        2.71550000        5.43100000
     12.21975000        1.35775000        6.78875000
     12.21975000        4.07325000        9.50425000
     14.93525000        1.35775000        9.50425000
     14.93525000        4.07325000        6.78875000
     16.29300000        0.00000000        5.43100000
     16.29300000        2.71550000        8.14650000
     19.00850000        0.00000000        8.14650000
     19.00850000        2.71550000        5.43100000
     17.65075000        1.35775000        6.78875000
     17.65075000        4.07325000        9.50425000
     20.36625000        1.35775000        9.50425000
     20.36625000        4.07325000        6.78875000
      0.00000000        5.43100000        5.43100000
      0.00000000        8.14650000        8.14650000
      2.71550000        5.43100000        8.14650000
      2.71550000        8.14650000        5.43100000
      1.35775000        6.78875000        6.78875000
      1.35775000        9.50425000        9.50425000
      4.07325000        6.78875000        9.50425000
      4.07325000        9.50425000        6.78875000
      5.43100000        5.43100000        5.43100000
      5.43100000        8.14650000        8.14650000
      8.14650000        5.43100000        8.14650000
      8.14650000        8.14650000        5.43100000
      6.78875000        6.78875000        6.78875000
      6.78875000        9.50425000        9.50425000
      9.50425000        6.78875000        9.50425000
      9.50425000        9.50425000        6.78875000
     10.86200000        5.43100000        5.43100000
     10.86200000        8.14650000        8.14650000
     13.57750000        5.43100000        8.14650000
     13.57750000        8.14650000        5.43100000
     12.21975000        6.78875000        6.78875000
     12.21975000        9.50425000        9.50425000
     14.93525000        6.78875000        9.50425000
     14.93525000        9.50425000        6.78875000
     16.29300000        5.43100000        5.43100000
     16.29300000        8.14650000        8.14650000
     19.00850000        5.43100000        8.14650000
     19.00850000        8.14650000        5.43100000
     17.65075000        6.78875000        6.78875000
     17.65075000        9.50425000        9.50425000
     20.36625000        6.78875000        9.50425000
     20.36625000        9.50425000        6.78875000
      0.00000000       10.86200000        5.43100000
      0.00000000       13.57750000        8.14650000
      2.71550000       10.86200000        8.14650000
      2.71550000       13.57750000        5.43100000
      1.35775000       12.21975000        6.78875000
      1.35775000       14.93525000        9.50425000
      4.07325000       12.21975000        9.50425000
      4.07325000       14.93525000        6.78875000
      5.43100000       10.86200000        5.43100000
      5.43100000       13.57750000        8.14650000
      8.14650000       10.86200000        8.14650000
      8.14650000       13.57750000        5.43100000
      6.78875000       12.21975000        6.78875000
      6.78875000       14.93525000        9.50425000
      9.50425000       12.21975000        9.50425000
      9.50425000       14.93525000        6.78875000
     10.86200000       10.86200000        5.43100000
     10.86200000       13.57750000        8.14650000
     13.57750000       10.86200000        8.14650000
     13.57750000       13.57750000        5.43100000
     12.21975000       12.21975000        6.78875000
     12.21975000       14.93525000        9.50425000
     14.93525000       12.21975000        9.50425000
     14.93525000       14.93525000        6.78875000
     16.29300000       10.86200000        5.43100000
     16.29300000       13.57750000        8.14650000
     19.00850000       10.86200000        8.14650000
     19.00850000       13.57750000        5.43100000
     17.65075000       12.21975000        6.78875000
     17.65075000       14.93525000        9.50425000
     20.36625000       12.21975000        9.50425000
     20.36625000       14.93525000        6.78875000
      0.00000000       16.29300000        5.43100000
      0.00000000       19.00850000        8.14650000
      2.71550000       16.29300000        8.14650000
      2.71550000       19.00850000        5.43100000
      1.35775000       17.65075000        6.78875000
      1.35775000       20.36625000        9.50425000
      4.07325000       17.65075000        9.50425000
      4.07325000       20.36625000        6.78875000
      5.43100000       16.29300000        5.43100000
      5.43100000       19.00850000        8.14650000
      8.14650000       16.29300000        8.14650000
      8.14650000       19.00850000        5.43100000
      6.78875000       17.65075000        6.78875000
      6.78875000       20.36625000        9.50425000
      9.50425000       17.65075000        9.50425000
      9.50425000       20.36625000        6.78875000
     10.86200000       16.29300000        5.43100000
     10.86200000       19.00850000        8.14650000
     13.57750000       16.29300000        8.14650000
     13.57750000       19.00850000        5.43100000
     12.21975000       17.65075000        6.78875000
     12.21975000       20.36625000        9.50425000
     14.93525000       17.65075000        9.50425000
     14.93525000       20.36625000        6.78875000
     16.29300000       16.29300000        5.43100000
     16.29300000       19.00850000        8.14650000
     19.00850000       16.29300000        8.14650000
     19.00850000       19.00850000        5.43100000
     17.65075000       17.65075000        6.78875000
     17.65075000       20.36625000        9.50425000
     20.36625000       17.65075000        9.50425000
     20.36625000       20.36625000        6.78875000
      0.00000000        0.00000000       10.86200000
      0.00000000        2.71550000       13.57750000
      2.71550000        0.00000000       13.57750000
      2.71550000        2.71550000       10.86200000
      1.35775000        1.35775000       12.21975000
      1.35775000        4.07325000       14.93525000
      4.07325000        1.35775000       14.93525000
      4.07325000        4.07325000       12.21975000
      5.43100000        0.00000000       10.86200000
      5.43100000        2.71550000       13.57750000
      8.14650000        0.00000000       13.57750000
      8.14650000        2.71550000       10.86200000
      6.78875000        1.35775000       12.21975000
      6.78875000        4.07325000       14.93525000
      9.50425000        1.35775000       14.93525000
      9.50425000        4.07325000       12.21975000
     10.86200000        0.00000000       10.86200000
     10.86200000        2.71550000       13.57750000
     13.57750000        0.00000000       13.57750000
     13.57750000        2.71550000       10.86200000
     12.21975000        1.35775000       12.21975000
     12.21975000        4.07325000       14.93525000
     14.93525000        1.35775000       14.93525000
     14.93525000        4.07325000       12.21975000
     16.29300000        0.00000000       10.86200000
     16.29300000        2.71550000       13.57750000
     19.00850000        0.00000000       13.57750000
     19.00850000        2.71550000       10.86200000
     17.65075000        1.35775000       12.21975000
     17.65075000        4.07325000       14.93525000
     20.36625000        1.35775000       14.93525000
     20.36625000        4.07325000       12.21975000
      0.00000000        5.43100000       10.86200000
      0.00000000        8.14650000       13.57750000
      2.71550000        5.43100000       13.57750000
      2.71550000        8.14650000       10.86200000
      1.35775000        6.78875000       12.21975000
      1.35775000        9.50425000       14.93525000
      4.07325000        6.78875000       14.93525000
      4.07325000        9.50425000       12.21975000
      5.43100000        5.43100000       10.86200000
      5.43100000        8.14650000       13.57750000
      8.14650000        5.43100000       13.57750000
      8.14650000        8.14650000       10.86200000
      6.78875000        6.78875000       12.21975000
      6.78875000        9.50425000       14.93525000
      9.50425000        6.78875000       14.93525000
      9.50425000        9.50425000       12.21975000
     10.86200000        5.43100000       10.86200000
     10.86200000        8.14650000       13.57750000
     13.57750000        5.43100000       13.57750000
     13.57750000        8.14650000       10.86200000
     12.21975000        6.78875000       12.21975000
     12.21975000        9.50425000       14.93525000
     14.93525000        6.78875000       14.93525000
     14.93525000        9.50425000       12.21975000
     16.29300000        5.43100000       10.86200000
     16.29300000        8.14650000       13.57750000
     19.00850000        5.43100000       13.57750000
     19.00850000        8.14650000       10.86200000
     17.65075000        6.78875000       12.21975000
     17.65075000        9.50425000       14.93525000
     20.36625000        6.78875000       14.93525000
     20.36625000        9.50425000       12.21975000
      0.00000000       10.86200000       10.86200000
      0.00000000       13.57750000       13.57750000
      2.71550000       10.86200000       13.57750000
      2.71550000       13.57750000       10.86200000
      1.35775000       12.21975000       12.21975000
      1.35775000       14.93525000       14.93525000
      4.07325000       12.21975000       14.93525000
      4.07325000       14.93525000       12.21975000
      5.43100000       10.86200000       10.86200000
      5.43100000       13.57750000       13.57750000
      8.14650000       10.86200000       13.57750000
      8.14650000       13.57750000       10.86200000
      6.78875000       12.21975000       12.21975000
      6.78875000       14.93525000       14.93525000
      9.50425000       12.21975000       14.93525000
      9.50425000       14.93525000       12.21975000
     10.86200000       10.86200000       10.86200000
     10.86200000       13.57750000       13.57750000
     13.57750000       10.86200000       13.57750000
     13.57750000       13.57750000       10.86200000
     12.21975000       12.21975000       12.21975000
     12.21975000       14.93525000       14.93525000
     14.93525000       12.21975000       14.93525000
     14.93525000       14.93525000       12.21975000
     16.29300000       10.86200000       10.86200000
     16.29300000       13.57750000       13.57750000
     19.00850000       10.86200000       13.57750000
     19.00850000       13.57750000       10.86200000
     17.65075000       12.21975000       12.21975000
     17.65075000       14.93525000       14.93525000
     20.36625000       12.21975000       14.93525000
     20.36625000       14.93525000       12.21975000
      0.00000000       16.29300000       10.86200000
      0.00000000       19.00850000       13.57750000
      2.71550000       16.29300000       13.57750000
      2.71550000       19.00850000       10.86200000
      1.35775000       17.65075000       12.21975000
      1.35775000       20.36625000       14.93525000
      4.07325000       17.65075000       14.93525000
      4.07325000       20.36625000       12.21975000
      5.43100000       16.29300000       10.86200000
      5.43100000       19.00850000       13.57750000
      8.14650000       16.29300000       13.57750000
      8.14650000       19.00850000       10.86200000
      6.78875000       17.65075000       12.21975000
      6.78875000       20.36625000       14.93525000
      9.50425000       17.65075000       14.93525000
      9.50425000       20.36625000       12.21975000
     10.86200000       16.29300000       10.86200000
     10.86200000       19.00850000       13.57750000
     13.57750000       16.29300000       13.57750000
     13.57750000       19.00850000       10.86200000
     12.21975000       17.65075000       12.21975000
     12.21975000       20.36625000       14.93525000
     14.93525000       17.65075000       14.93525000
     14.93525000       20.36625000       12.21975000
     16.29300000       16.29300000       10.86200000
     16.29300000       19.00850000       13.57750000
     19.00850000       16.29300000       13.57750000
     19.00850000       19.00850000       10.86200000
     17.65075000       17.65075000       12.21975000
     17.65075000       20.36625000       14.93525000
     20.36625000       17.65075000       14.93525000
     20.36625000       20.36625000       12.21975000
      0.00000000        0.00000000       16.29300000
      0.00000000        2.71550000       19.00850000
      2.71550000        0.00000000       19.00850000
      2.71550000        2.71550000       16.29300000
      1.35775000        1.35775000       17.65075000
      1.35775000        4.07325000       20.36625000
      4.07325000        1.35775000       20.36625000
      4.07325000        4.07325000       17.65075000
      5.43100000        0.00000000       16.29300000
      5.43100000        2.71550000       19.00850000
      8.14650000        0.00000000       19.00850000
      8.14650000        2.71550000       16.29300000
      6.78875000        1.35775000       17.65075000
      6.78875000        4.07325000       20.36625000
      9.50425000        1.35775000       20.36625000
      9.50425000        4.07325000       17.65075000
     10.86200000        0.00000000       16.29300000
     10.86200000        2.71550000       19.00850000
     13.57750000        0.00000000       19.00850000
     13.57750000        2.71550000       16.29300000
     12.21975000        1.35775000       17.65075000
     12.21975000        4.07325000       20.36625000
     14.93525000        1.35775000       20.36625000
     14.93525000        4.07325000       17.65075000
     16.29300000        0.00000000       16.29300000
     16.29300000        2.71550000       19.00850000
     19.00850000        0.00000000       19.00850000
     19.00850000        2.71550000       16.29300000
     17.65075000        1.35775000       17.65075000
     17.65075000        4.07325000       20.36625000
     20.36625000        1.35775000       20.36625000
     20.36625000        4.07325000       17.65075000
      0.00000000        5.43100000       16.29300000
      0.00000000        8.14650000       19.00850000
      2.71550000        5.43100000       19.00850000
      2.71550000        8.14650000       16.29300000
      1.35775000        6.78875000       17.65075000
      1.35775000        9.50425000       20.36625000
      4.07325000        6.78875000       20.36625000
      4.07325000        9.50425000       17.65075000
      5.43100000        5.43100000       16.29300000
      5.43100000        8.14650000       19.00850000
      8.14650000        5.43100000       19.00850000
      8.14650000        8.14650000       16.29300000
      6.78875000        6.78875000       17.65075000
      6.78875000        9.50425000       20.36625000
      9.50425000        6.78875000       20.36625000
      9.50425000        9.50425000       17.65075000
     10.86200000        5.43100000       16.29300000
     10.86200000        8.14650000       19.00850000
     13.57750000        5.43100000       19.00850000
     13.57750000        8.14650000       16.29300000
     12.21975000        6.78875000       17.65075000
     12.21975000        9.50425000       20.36625000
     14.93525000        6.78875000       20.36625000
     14.93525000        9.50425000       17.65075000
     16.29300000        5.43100000       16.29300000
     16.29300000        8.14650000       19.00850000
     19.00850000        5.43100000       19.00850000
     19.00850000        8.14650000       16.29300000
     17.65075000        6.78875000       17.65075000
     17.65075000        9.50425000       20.36625000
     20.36625000        6.78875000       20.36625000
     20.36625000        9.50425000       17.65075000
      0.00000000       10.86200000       16.29300000
      0.00000000       13.57750000       19.00850000
      2.71550000       10.86200000       19.00850000
      2.71550000       13.57750000       16.29300000
      1.35775000       12.21975000       17.65075000
      1.35775000       14.93525000       20.36625000
      4.07325000       12.21975000       20.36625000
      4.07325000       14.93525000       17.65075000
      5.43100000       10.86200000       16.29300000
      5.43100000       13.57750000       19.00850000
      8.14650000       10.86200000       19.00850000
      8.14650000       13.57750000       16.29300000
      6.78875000       12.21975000       17.65075000
      6.78875000       14.93525000       20.36625000
      9.50425000       12.21975000       20.36625000
      9.50425000       14.93525000       17.65075000
     10.86200000       10.86200000       16.29300000
     10.86200000       13.57750000       19.00850000
     13.57750000       10.86200000       19.00850000
     13.57750000       13.57750000       16.29300000
     12.21975000       12.21975000       17.65075000
     12.21975000       14.93525000       20.36625000
     14.93525000       12.21975000       20.36625000
     14.93525000       14.93525000       17.65075000
     16.29300000       10.86200000       16.29300000
     16.29300000       13.57750000       19.00850000
     19.00850000       10.86200000       19.00850000
     19.00850000       13.57750000       16.29300000
     17.65075000       12.21975000       17.65075000
     17.65075000       14.93525000       20.36625000
     20.36625000       12.21975000       20.36625000
     20.36625000       14.93525000       17.65075000
      0.00000000       16.29300000       16.29300000
      0.00000000       19.00850000       19.00850000
      2.71550000       16.29300000       19.00850000
      2.71550000       19.00850000       16.29300000
      1.35775000       17.65075000       17.65075000
      1.35775000       20.36625000       20.36625000
      4.07325000       17.65075000       20.36625000
      4.07325000       20.36625000       17.65075000
      5.43100000       16.29300000       16.29300000
      5.43100000       19.00850000       19.00850000
      8.14650000       16.29300000       19.00850000
      8.14650000       19.00850000       16.29300000
      6.78875000       17.65075000       17.65075000
      6.78875000       20.36625000       20.36625000
      9.50425000       17.65075000       20.36625000
      9.50425000       20.36625000       17.65075000
     10.86200000       16.29300000       16.29300000
     10.86200000       19.00850000       19.00850000
     13.57750000       16.29300000       19.00850000
     13.57750000       19.00850000       16.29300000
     12.21975000       17.65075000       17.65075000
     12.21975000       20.36625000       20.36625000
     14.93525000       17.65075000       20.36625000
     14.93525000       20.36625000       17.65075000
     16.29300000       16.29300000       16.29300000
     16.29300000       19.00850000       19.00850000
     19.00850000       16.29300000       19.00850000
     19.00850000       19.00850000       16.29300000
     17.65075000       17.65075000       17.65075000
     17.65075000       20.36625000       20.36625000
     20.36625000       17.65075000       20.36625000
     20.36625000       20.36625000       17.65075000
