# MoS2 monolayer

#Definition of the unit cell
acell 1.0 1.0 1.0 Angstrom
rprim
   1.5961189560652260   -2.7645591268287690    0.0000000000000000
   1.5961189560652260    2.7645591268287690    0.0000000000000000
   0.0000000000000000    0.0000000000000000   40.3782940000000004

#Definition of the atoms
ntypat 2
znucl 42 16

#Definition of the atoms
natom 6 
typat 1 1 2 2 2 2
xred
   0.6666666666666661    0.3333333333333330    0.2500000000000000
   0.3333333333333330    0.6666666666666661    0.7500000000000000
   0.6666666666666661    0.3333333333333330    0.6330819999999990
   0.3333333333333330    0.6666666666666661    0.3669179999999990
   0.6666666666666661    0.3333333333333330    0.8669180000000000
   0.3333333333333330    0.6666666666666661    0.1330819999999990

pseudos "mo.psp8, s.psp8"

prtden    0
prtwf     0
prtposcar 1
ixc       11
tolsym    1e-8

autoparal 1
max_ncpus 4
#paral_kgb 1

#np_spkpt 7
#npfft 2
#npband 9
#bandpp 1

#Definition of the planewave basis set
ecut 20.0         # Maximal kinetic energy cut-off, in Hartree
ecutsm 0.5

#Definition of the k-point grid
kptopt 1           # Option for the automatic generation of k points, taking
                   # into account the symmetry
ngkpt 3 3 1        # This is an nxnx1 grid based on the primitive vectors
nshiftk 1
shiftk 0.0 0.0 0.0

#Definition of the SCF procedure
nstep 100         # Maximal number of SCF cycles
toldfe 1.0d-9     # Will stop when, twice in a row, the difference
                  # between two consecutive evaluations of total energy
                  # differ by less than toldfe (in Hartree)
                  # This value is way too large for most realistic studies of materials
diemac 12.0       # Although this is not mandatory, it is worth to
                  # precondition the SCF cycle. The model dielectric
                  # function used as the standard preconditioner
                  # is described in the "dielng" input variable section.
                  # Here, we follow the prescriptions for molecules
                  # in a big box

# VDW
#vdw_xc      6
#vdw_tol     1e-8
#vdw_tol_3bt 1e-5

ndtset 2 jdtset 1 2

#DATASET 1: geometry optimization
#################################
dilatmx1  1.1
optcell1  2
ionmov1   2
ntime1    200
tolmxf1   1.0d-5

#DATASET 2: scf
#################################
getcell2  1
getxcart2 1
getwfk2   1
prtden2   1
prtwf2    1

#DATASET3 : Electronic Band Structure
#********************************************
  getcell3  1
  getxcart3 1
  getden3   2
  getwfk3   2
  tolwfr3   1.0d-8
#  nband3    20
  iscf3     -2
  kptopt3   -11
  ndivsm3   10
  kptbounds3
   0.0000   0.0000   0.0000   ! \Gamma
   0.5000   0.0000   0.0000   ! M
   0.3333   0.3333   0.0000   ! K
   0.0000   0.0000   0.0000   ! \Gamma
