H2O
0.52917721092
15.0 0.0 0.0
0.0 15.0 0.0
0.0 0.0 15.0
O H
1 2
Direct
  0.5000000000000000  0.5000000000000000  0.4976249512600000
  0.4035875172400000  0.5000000000000000  0.5745208303700000
  0.5964124827599999  0.5000000000000000  0.5745208303700000

