Mo2 S4
1.0
        3.1922378540         0.0000000000         0.0000000000
       -1.5961189270         2.7645590765         0.0000000000
        0.0000000000         0.0000000000        13.3782939911
   Mo    S
    2    4
Cartesian
     1.596118927         0.921519697         3.344573498
     0.000000000         1.843039393        10.033720016
     1.596118927         0.921519697         8.469556808
     0.000000000         1.843039393         4.908736706
     1.596118927         0.921519697        11.597884178
     0.000000000         1.843039393         1.780410171
