#Si
1.0
   3.8404600924267367        0.0000000000000000        0.0000000000000000
   1.9202300462133584        3.3259360022503093        0.0000000000000000
   1.9202300462133579        1.1086453340834361        3.1357225346433095
Si
           2
Cartesian
   1.9202300462133650        1.1086453314318319       0.78393061993435675
   1.9202300462133559        1.1086453314350535        3.1357225209197783

