natom 3
typat
 1 2 2
ntypat 2
znucl 8 1
acell 1 1 1
rprim
  15.0000000000000000   0.0000000000000000   0.0000000000000000
   0.0000000000000000  15.0000000000000000   0.0000000000000000
   0.0000000000000000   0.0000000000000000  15.0000000000000000
xred
  0.4976249512645200  0.5000000000000000  0.5000000000000000
  0.5745208303677400  0.4035875172434800  0.5000000000000000
  0.5745208303677400  0.5964124827565300  0.5000000000000000