# MoS2 bilayer

#Definition of the unit cell
acell 6.0373533367E+00  6.0373533367E+00  2.5685222633E+01 Bohr
rprim
      5.0000000000E-01 -8.6602540378E-01  0.0000000000E+00
      5.0000000000E-01  8.6602540378E-01  0.0000000000E+00
      0.0000000000E+00  0.0000000000E+00  1.0000000000E+00

#Definition of the atoms
ntypat 2
znucl 42 16

#Definition of the atoms
natom 6 
typat 1 1 2 2 2 2
xred
      6.6666666667E-01  3.3333333333E-01  2.5000000000E-01
      3.3333333333E-01  6.6666666667E-01  7.5000000000E-01
      6.6666666667E-01  3.3333333333E-01  6.3523126650E-01
      3.3333333333E-01  6.6666666667E-01  3.6476873350E-01
      6.6666666667E-01  3.3333333333E-01  8.6476873350E-01
      3.3333333333E-01  6.6666666667E-01  1.3523126650E-01

