Mo2 S4
1.0
   1.5961189560652260   -2.7645591268287690    0.0000000000000000
   1.5961189560652260    2.7645591268287690    0.0000000000000000
   0.0000000000000000    0.0000000000000000   13.3782940000000004
Mo S
2 4
direct
   0.6666666666666661    0.3333333333333330    0.2500000000000000 Mo4+
   0.3333333333333330    0.6666666666666661    0.7500000000000000 Mo4+
   0.6666666666666661    0.3333333333333330    0.6330819999999990 S2-
   0.3333333333333330    0.6666666666666661    0.3669179999999990 S2-
   0.6666666666666661    0.3333333333333330    0.8669180000000000 S2-
   0.3333333333333330    0.6666666666666661    0.1330819999999990 S2-
